32
11
14
0
55
81
20
0
48
27
36
21
15
16
0
16
0
26
32
39
18
33
10
9
11
0
20
87
28
17
98
45
35
0
0
96
27
34
31
12
11
29
18
167
14
0
20
17
0
12
26
49
19
36
17
17
0
24
12
23
18
59
28
49
22
0
0
52
8
20
0
110
30
19
67
26
16
31
13
30
42
16
10
12
48
0
20
0
0
20
19
46
0
27
51
17
11
18
0
73
